NAME : portcgen-25-9
COMMENT : portcgen N=25, seed=9
TYPE : TSP
DIMENSION : 25
EDGE_WEIGHT_TYPE : EUC_2D
NODE_COORD_SECTION
1 -6205 239583
2 316806 123814
3 -228105 160802
4 60700 -75430
5 -39736 -114296
6 72250 -46293
7 -163561 136961
8 -114281 -37570
9 144049 5464
10 -113748 83128
11 44403 199885
12 -55414 291060
13 291625 -80552
14 -36261 25922
15 460801 21421
16 -222649 190450
17 -93535 528433
18 -100414 5362
19 -176590 259811
20 269377 6496
21 75234 25941
22 89203 -75155
23 115992 -100262
24 81171 -99258
25 -74928 330322
